m = 6; % number of couriers
n = 8; % number of packages

l = [21, 20, 11, 16, 11, 14]; % maximum carriable weight per courier
s = [5, 5, 6, 12, 11, 10, 12, 7]; % weight of each package

D = % distance matrix 
	 [| 12, 5, 16, 5, 16, 7, 6, 8, 10
	 | 5, 12, 15, 12, 10, 8, 11, 13, 6
	 | 16, 15, 10, 8, 13, 13, 15, 7, 15
	 | 5, 12, 8, 14, 6, 10, 5, 14, 7
	 | 16, 10, 13, 6, 4, 15, 14, 16, 6
	 | 7, 8, 13, 10, 15, 4, 8, 4, 12
	 | 6, 11, 15, 5, 14, 8, 8, 9, 8
	 | 8, 13, 7, 14, 16, 4, 9, 5, 9
	 | 5, 13, 16, 8, 15, 6, 9, 15, 11
	 |];